%nproc=12
%mem=16GB
#P pm6   opt=loose freq int=(grid=99590)   

initial-13

 1 1
C        -13.226     -5.415     16.083
H        -13.080     -5.277     17.159
O        -12.472     -6.473     15.610
H        -11.572     -6.392     15.940
C        -13.444     -3.054     15.899
H        -13.550     -2.384     15.041
O        -12.849     -4.248     15.388
C        -14.707     -5.726     15.801
H        -15.128     -6.244     16.670
N        -14.805     -6.619     14.647
H        -13.914     -7.012     14.353
C        -15.899     -7.054     14.074
O        -17.073     -6.653     14.397
C        -15.828     -8.067     12.993
H        -16.305     -7.662     12.097
H        -16.405     -8.943     13.300
H        -14.805     -8.364     12.765
C        -15.486     -4.422     15.606
H        -15.429     -4.112     14.553
O        -16.829     -4.720     15.949
H        -17.398     -3.925     16.113
C        -14.860     -3.316     16.444
H        -14.813     -3.608     17.498
O        -15.603     -2.121     16.289
C        -12.551     -2.397     16.926
H        -13.142     -2.070     17.787
H        -12.053     -1.533     16.471
O        -11.599     -3.372     17.316
C        -14.895     -0.957     15.985
H        -14.925     -0.899     14.888
C        -12.734      0.011     16.154
H        -12.666      0.143     15.061
O        -13.574     -1.100     16.447
C        -15.518      0.294     16.583
H        -15.521      0.204     17.677
O        -16.850      0.395     16.101
H        -17.121      1.316     16.222
C        -14.703      1.526     16.231
H        -14.694      1.663     15.144
O        -15.321      2.669     16.773
H        -15.050      2.731     17.697
C        -13.285      1.314     16.739
H        -12.648      2.140     16.388
O        -13.369      1.315     18.148
H        -12.627      0.796     18.493
C        -11.342     -0.323     16.662
H        -10.667      0.498     16.404
H        -10.982     -1.231     16.165
O        -11.314     -0.486     18.072
H        -11.481     -1.428     18.264
C        -11.145     -4.229     16.342
H        -11.899     -4.998     16.097
C        -10.351     -4.223     14.081
H        -11.057     -5.042     13.874
O        -10.874     -3.458     15.182
C         -9.865     -4.860     16.848
H         -9.190     -4.035     17.125
O        -10.166     -5.648     17.978
H         -9.402     -6.218     18.124
C         -9.207     -5.684     15.749
H         -9.855     -6.541     15.525
O         -7.992     -6.213     16.222
H         -7.319     -5.537     16.072
C         -9.019     -4.853     14.479
H         -8.699     -5.523     13.674
O         -7.969     -3.925     14.664
H         -8.304     -3.060     14.935
C        -10.271     -3.304     12.886
H         -9.578     -2.480     13.071
H        -11.257     -2.894     12.659
H         -9.913     -3.856     12.015
H        -17.108     -5.878     15.076
 