%nproc=12
%mem=16GB
#P pm6   opt=loose freq int=(grid=99590)   

offspring-13

 0 1
O          1.963      0.956      0.206
C          2.445      2.125      0.881
C          3.127      1.706      2.204
O          3.987      0.630      1.812
C          2.069      1.194      3.205
C          1.085      2.333      3.534
O          1.056      3.347      2.536
C          1.214      3.021      1.138
C         -0.099      2.419      0.617
O         -1.207      3.118      1.213
O          1.035      3.028      8.093
C          0.127      2.137      7.422
C         -0.146      2.686      6.004
C         -0.781      1.629      5.072
C         -0.282      0.176      5.300
O          0.056     -0.154      6.649
C          0.873      0.793      7.377
C          1.020      0.130      8.764
O          0.618      0.990      9.823
O         -1.365     -0.716      5.047
O         -0.289      1.995      3.765
O         -1.083      3.728      6.252
O          2.800      0.881      4.392
H          3.178      2.624      0.206
H          3.745      2.518      2.649
H          4.347      0.188      2.622
H          1.564      0.278      2.809
H          1.352      2.916      4.451
H          1.373      4.052      0.730
H         -0.228      2.567     -0.471
H         -0.196      1.340      0.853
H         -0.974      3.339      2.171
H         -0.819      2.072      8.013
H          0.779      3.103      5.539
H         -1.894      1.687      5.115
H          0.540     -0.115      4.612
H          1.850      0.891      6.856
H          0.332     -0.738      8.858
H          2.061     -0.199      8.935
H          1.105      1.857      9.770
H         -1.122      4.379      5.466
H          0.614      3.922      8.161
H          2.367      0.113      4.860
H         -1.722     -1.076      5.900
H          2.677      0.262      0.202
 