%nproc=12
%mem=16GB
#P pm6   opt=loose freq int=(grid=99590)   

offspring-00

 1 1
C         -3.351      3.031      0.086
H         -3.604      3.927      0.694
O         -3.601      3.222     -1.296
H         -4.520      3.540     -1.460
C         -4.152      0.712     -0.002
H         -4.427      0.793     -1.079
O         -4.238      2.039      0.587
C         -1.865      2.579      0.179
H         -1.595      2.478      1.276
N         -0.980      3.579     -0.435
H         -1.294      4.000     -1.311
C          0.290      3.787      0.111
O          0.579      3.165      1.138
C          1.196      4.739     -0.578
H          2.068      4.186     -0.999
H          1.623      5.466      0.137
H          0.750      5.316     -1.397
C         -1.748      1.205     -0.517
H         -1.931      1.273     -1.620
O         -0.381      0.700     -0.473
H         -0.385     -0.505     -0.441
C         -2.703      0.215      0.174
H         -2.458      0.066      1.253
O         -2.518     -1.013     -0.561
C         -5.193     -0.110      0.776
H         -5.608     -0.920      0.142
H         -6.014      0.541      1.137
O         -4.591     -0.815      1.865
H         -4.561     -0.247      2.669
C         -2.343     -2.182      0.266
H         -3.162     -2.267      1.020
C         -0.021     -2.764      0.810
H         -0.312     -3.791      1.158
O         -1.162     -1.896      1.029
C         -2.252     -3.342     -0.754
H         -3.030     -3.203     -1.546
O         -2.446     -4.554     -0.023
H         -3.392     -4.834     -0.036
C         -0.868     -3.535     -1.424
H         -0.654     -4.626     -1.521
O         -0.990     -2.908     -2.710
H         -0.507     -3.423     -3.403
C          0.279     -2.793     -0.696
H          1.296     -3.203     -0.912
O          0.351     -1.424     -1.208
H         -0.208     -1.373     -2.076
C          1.067     -2.175      1.717
H          1.328     -2.869      2.541
H          0.741     -1.200      2.140
O          2.260     -2.045      0.907
C          3.038     -0.871      1.208
H          3.096     -0.688      2.299
C          5.310     -0.213      0.703
H          5.379      0.201      1.733
O          4.308     -1.276      0.687
C          2.449      0.321      0.407
H          1.942     -0.050     -0.521
O          1.376      0.807      1.269
H          1.545      1.780      1.550
C          3.457      1.437      0.074
H          3.518      2.187      0.898
O          2.956      2.182     -1.031
H          3.256      1.758     -1.892
C          4.847      0.859     -0.305
H          5.597      1.677     -0.430
O          4.711      0.329     -1.624
H          4.410     -0.620     -1.577
C          6.582     -0.922      0.288
H          6.594     -1.956      0.675
H          7.477     -0.418      0.673
H          6.689     -0.997     -0.805
H          0.169      0.970      0.486
 