%nproc=12
%mem=16GB
#P pm6   opt=loose freq int=(grid=99590)   

initial-16

 1 1
C          9.293     -0.508     -5.861
H         10.247     -0.711     -6.364
O          9.459      0.354     -4.784
H          9.861     -0.160     -4.046
C          7.533     -1.721     -4.854
H          7.529     -0.938     -4.085
O          8.807     -1.757     -5.501
C          8.322      0.167     -6.847
H          8.453     -0.305     -7.827
N          8.726      1.573     -6.958
H          9.374      1.878     -6.237
C          8.324      2.442     -7.854
O          7.385      2.184     -8.686
C          8.962      3.776     -7.953
H          9.355      3.894     -8.966
H          9.768      3.910     -7.233
H          8.199      4.546     -7.811
C          6.852      0.016     -6.455
H          6.608      0.729     -5.658
O          6.117      0.331     -7.635
H          5.140      0.186     -7.538
C          6.512     -1.374     -5.925
H          6.556     -2.122     -6.724
O          5.215     -1.283     -5.359
C          7.357     -3.040     -4.136
H          7.129     -2.880     -3.075
H          8.282     -3.613     -4.204
O          6.347     -3.786     -4.783
C          4.124     -1.388     -6.213
H          4.568     -1.570     -7.202
C          2.357     -0.132     -7.141
H          2.770     -0.288     -8.153
O          3.416     -0.173     -6.197
C          3.168     -2.518     -5.862
H          2.709     -2.311     -4.888
O          3.895     -3.738     -5.808
H          3.251     -4.450     -5.928
C          2.050     -2.587     -6.892
H          2.478     -2.793     -7.881
O          1.198     -3.666     -6.592
H          0.577     -3.359     -5.920
C          1.329     -1.245     -6.903
H          0.608     -1.228     -7.734
O          0.665     -1.170     -5.662
H          0.470     -0.240     -5.477
C          1.771      1.264     -7.128
H          1.095      1.359     -7.988
H          2.588      1.985     -7.242
O          1.075      1.474     -5.908
H          0.665      2.341     -5.915
C          5.510     -4.561     -3.963
H          4.459     -4.364     -4.183
C          6.997     -4.441     -2.106
H          7.691     -3.804     -2.673
O          5.677     -4.242     -2.610
C          5.841     -6.036     -4.162
H          5.171     -6.603     -3.504
O          5.655     -6.455     -5.510
H          6.183     -7.261     -5.596
C          7.282     -6.298     -3.749
H          7.941     -5.704     -4.389
O          7.603     -7.654     -3.978
H          7.277     -8.147     -3.214
C          7.471     -5.885     -2.298
H          8.541     -5.935     -2.049
O          6.742     -6.836     -1.540
H          6.986     -6.774     -0.615
C          6.975     -4.015     -0.657
H          6.243     -4.602     -0.096
H          6.690     -2.964     -0.577
H          7.963     -4.137     -0.202
H          6.796      1.389     -8.383
 