%nproc=12
%mem=16GB
#P pm6   opt=loose freq int=(grid=99590)   

offspring-17

 0 1
O          0.653      0.350      1.153
C          1.635      1.362      0.892
C          2.850      1.146      1.823
O          3.128     -0.253      1.693
C          2.462      1.469      3.282
C          2.060      2.953      3.385
O          1.663      3.510      2.137
C          0.948      2.719      1.162
C         -0.515      2.584      1.606
O         -0.949      3.831      2.180
O         -0.203      0.635      7.896
C          0.383      1.927      7.657
C          0.946      1.955      6.219
C          1.241      3.391      5.727
C          0.244      4.469      6.232
O         -0.297      4.245      7.536
C         -0.783      2.914      7.830
C         -1.268      3.037      9.290
O         -0.674      2.064     10.143
O          0.961      5.687      6.424
O          1.018      3.310      4.303
O          2.167      1.236      6.352
O          3.660      1.280      4.037
H          1.941      1.266     -0.176
H          3.747      1.723      1.505
H          3.792     -0.520      2.377
H          1.665      0.773      3.640
H          2.896      3.633      3.688
H          1.038      3.399      0.277
H         -1.200      2.414      0.756
H         -0.660      1.782      2.358
H         -0.185      4.230      2.707
H          1.194      2.100      8.406
H          0.269      1.433      5.501
H          2.295      3.673      5.955
H         -0.568      4.687      5.506
H         -1.617      2.680      7.132
H         -0.942      4.003      9.732
H         -2.368      2.952      9.350
H         -0.819      1.149      9.779
H          2.496      0.905      5.443
H          0.501     -0.057      7.804
H          3.431      0.955      4.953
H          1.094      5.861      7.392
H          1.101     -0.539      1.191
 