%nproc=12
%mem=16GB
#P pm6   opt=loose freq int=(grid=99590)   

offspring-07

 0 1
O          1.666      0.167      1.033
C          2.184      1.504      1.056
C          3.043      1.697      2.327
O          3.887      0.539      2.342
C          2.141      1.703      3.580
C          1.166      2.894      3.498
O          0.970      3.362      2.169
C          0.961      2.448      1.051
C         -0.382      1.705      1.026
O         -1.433      2.618      1.391
O         -4.282      1.195      5.523
C         -2.919      0.741      5.443
C         -2.178      1.585      4.383
C         -0.642      1.444      4.485
C         -0.096      1.291      5.931
O         -0.953      0.607      6.847
C         -2.353      0.979      6.853
C         -2.956      0.041      7.920
O         -4.046     -0.723      7.418
O          1.034      0.422      5.890
O         -0.155      2.725      4.033
O         -2.630      1.013      3.161
O          3.027      1.931      4.677
H          2.807      1.639      0.141
H          3.682      2.607      2.284
H          4.362      0.492      3.210
H          1.624      0.720      3.697
H          1.525      3.816      4.021
H          1.027      3.188      0.213
H         -0.653      1.358      0.012
H         -0.407      0.844      1.724
H         -1.089      3.237      2.113
H         -2.914     -0.341      5.165
H         -2.470      2.661      4.434
H         -0.281      0.620      3.826
H          0.252      2.250      6.369
H         -2.431      2.048      7.145
H         -2.217     -0.731      8.227
H         -3.288      0.612      8.805
H         -4.737     -0.124      7.023
H         -2.472      1.650      2.378
H         -4.711      1.075      4.638
H          2.690      1.452      5.486
H          0.802     -0.465      6.271
H          2.400     -0.473      1.245
 