%nproc=12
%mem=16GB
#P pm6   opt=loose freq int=(grid=99590)   

initial-12

 1 1
C         -1.229     -5.775      3.841
H         -2.114     -5.577      4.457
O         -0.408     -6.741      4.391
H         -0.106     -6.438      5.253
C         -1.122     -3.486      3.097
H         -0.321     -2.773      2.877
O         -0.451     -4.602      3.682
C         -1.678     -6.270      2.472
H         -2.277     -7.177      2.574
N         -0.467     -6.556      1.714
H          0.389     -6.185      2.108
C         -0.429     -7.066      0.519
O         -1.520     -7.526      0.019
C          0.842     -7.113     -0.243
H          1.687     -6.763      0.350
H          0.727     -6.474     -1.125
H          1.028     -8.136     -0.580
C         -2.517     -5.177      1.796
H         -2.747     -5.487      0.773
O         -3.684     -5.085      2.585
H         -4.318     -4.502      2.159
C         -1.757     -3.841      1.755
H         -2.457     -3.036      1.494
O         -0.698     -3.883      0.802
C         -2.098     -2.831      4.079
H         -1.553     -2.597      5.000
H         -2.915     -3.509      4.329
O         -2.696     -1.689      3.504
H         -2.090     -0.947      3.561
C         -0.550     -2.801     -0.037
H          0.120     -3.042     -0.882
C          0.159     -0.511      0.028
H          0.797     -0.653     -0.861
O          0.013     -1.734      0.724
C         -1.921     -2.409     -0.562
H         -2.582     -2.272      0.307
O         -2.377     -3.440     -1.393
H         -3.110     -3.085     -1.908
C         -1.834     -1.093     -1.333
H         -1.181     -1.256     -2.200
O         -3.087     -0.742     -1.859
H         -3.615     -0.311     -1.168
C         -1.193     -0.012     -0.471
H         -1.053      0.899     -1.067
O         -1.996      0.281      0.671
C          0.914      0.448      0.944
H          0.965      1.436      0.474
H          1.936      0.080      1.057
O          0.395      0.564      2.260
H         -0.390      1.149      2.299
C         -3.370      0.246      0.530
H         -3.864      0.514      1.482
C         -5.161      1.208     -0.703
H         -5.655      1.491      0.241
O         -3.748      1.153     -0.479
C         -3.764     -1.153      0.112
H         -3.265     -1.374     -0.840
O         -3.341     -2.049      1.124
H         -3.840     -2.869      1.022
C         -5.272     -1.219     -0.081
H         -5.756     -1.004      0.880
O         -5.655     -2.523     -0.436
H         -5.529     -2.604     -1.390
C         -5.701     -0.171     -1.101
H         -6.798     -0.122     -1.114
O         -5.204     -0.631     -2.345
H         -5.680     -0.214     -3.065
C         -5.402      2.273     -1.746
H         -4.869      2.029     -2.668
H         -5.045      3.241     -1.391
H         -6.470      2.363     -1.961
H         -1.495     -7.533     -1.008
 