%nproc=12
%mem=16GB
#P pm6   opt=loose freq int=(grid=99590)   

offspring-01

 0 1
O          1.964      0.956      0.206
C          2.445      2.126      0.881
C          3.127      1.707      2.203
O          3.988      0.630      1.811
C          2.070      1.193      3.204
C          1.086      2.332      3.534
O          1.056      3.347      2.536
C          1.213      3.022      1.138
C         -0.098      2.419      0.616
O         -1.207      3.117      1.212
O         -1.369      0.320      7.958
C         -1.705      1.439      7.119
C         -0.593      1.614      6.061
C         -1.032      2.517      4.886
C         -2.525      2.380      4.481
O         -3.428      2.091      5.551
C         -3.045      1.045      6.476
C         -4.220      1.021      7.477
O         -3.788      1.166      8.825
O         -2.991      3.656      4.047
O         -0.288      1.994      3.765
O          0.437      2.259      6.801
O          2.802      0.880      4.391
H          3.178      2.625      0.206
H          3.745      2.518      2.648
H          4.348      0.189      2.621
H          1.565      0.279      2.809
H          1.352      2.916      4.452
H          1.373      4.052      0.730
H         -0.227      2.567     -0.472
H         -0.195      1.340      0.851
H         -0.975      3.338      2.170
H         -1.797      2.353      7.755
H         -0.232      0.631      5.677
H         -0.762      3.580      5.088
H         -2.684      1.677      3.637
H         -2.958      0.091      5.912
H         -4.886      1.897      7.321
H         -4.803      0.088      7.379
H         -3.097      0.483      9.043
H          1.339      2.164      6.331
H         -0.509      0.508      8.412
H          2.369      0.113      4.859
H         -3.576      4.063      4.739
H          2.678      0.262      0.202
 