%nproc=12
%mem=16GB
#P pm6   opt=loose freq int=(grid=99590)   

initial-03

 1 1
C          5.236     -6.752     -8.655
H          5.656     -6.776     -9.667
O          5.505     -7.942     -7.965
H          5.237     -8.693     -8.503
C          3.113     -6.349     -7.633
H          3.123     -7.283     -7.055
O          3.880     -6.505     -8.831
C          5.895     -5.634     -7.839
H          5.812     -4.714     -8.420
N          7.301     -5.954     -7.658
H          7.480     -6.918     -7.401
C          8.347     -5.170     -7.822
O          8.293     -3.938     -8.127
C          9.709     -5.746     -7.667
H         10.198     -5.254     -6.821
H         10.290     -5.508     -8.560
H          9.700     -6.824     -7.508
C          5.174     -5.457     -6.501
H          5.277     -6.372     -5.905
O          5.779     -4.376     -5.819
H          5.131     -3.982     -5.203
C          3.698     -5.223     -6.789
H          3.585     -4.283     -7.343
O          2.976     -5.157     -5.568
C          1.696     -6.033     -8.073
H          1.060     -5.956     -7.188
H          1.323     -6.859     -8.690
O          1.615     -4.797     -8.745
H          2.003     -4.903     -9.617
C          2.562     -3.878     -5.224
H          3.400     -3.165     -5.322
C          1.744     -2.659     -3.360
H          2.599     -1.970     -3.449
O          2.132     -3.927     -3.879
C          1.400     -3.457     -6.103
H          0.584     -4.175     -5.956
O          1.768     -3.345     -7.458
H          1.818     -4.225     -7.840
C          0.940     -2.076     -5.653
H          1.764     -1.367     -5.830
O         -0.217     -1.673     -6.342
H         -0.063     -1.793     -7.284
C          0.589     -2.072     -4.166
H          0.441     -1.028     -3.851
O         -0.564     -2.837     -3.923
H         -1.222     -2.570     -4.574
C          1.369     -2.869     -1.904
H          2.150     -3.448     -1.413
H          0.426     -3.420     -1.837
O          1.290     -1.649     -1.177
C          2.015     -1.571     -0.004
H          1.360     -1.616      0.886
C          3.709     -2.598      1.263
H          3.018     -2.536      2.119
O          2.945     -2.622      0.052
C          2.747     -0.239     -0.040
H          3.313     -0.202     -0.979
O          1.805      0.835     -0.011
H          1.048      0.656     -0.626
C          3.689     -0.091      1.143
H          3.085      0.011      2.052
O          4.451      1.081      1.023
H          5.225      0.856      0.492
C          4.571     -1.338      1.259
H          5.141     -1.275      2.191
O          5.520     -1.339      0.209
H          5.125     -1.772     -0.556
C          4.500     -3.882      1.336
H          3.825     -4.740      1.314
H          5.078     -3.914      2.262
H          5.194     -3.962      0.498
H          7.399     -3.366     -8.010
 