%nproc=12
%mem=16GB
#P pm6   opt=loose freq int=(grid=99590)   

initial-03

 0 1
O          3.185     -0.561      0.901
C          3.472     -0.369      2.307
C          3.308     -1.694      3.082
O          4.251     -2.660      2.588
C          1.857     -2.209      2.918
C          0.776     -1.089      3.175
O          1.087      0.166      2.541
C          2.421      0.615      2.871
C          2.579      2.025      2.272
O          3.939      2.420      2.508
O         -0.621     -0.386      5.383
C         -1.695     -1.004      4.632
C         -1.342     -2.181      3.682
C         -2.647     -2.738      3.062
C         -3.687     -3.105      4.154
O         -3.927     -2.006      5.039
C         -2.755     -1.489      5.678
C         -3.325     -0.340      6.523
O         -4.002      0.602      5.655
O         -4.925     -3.317      3.502
O         -2.264     -3.865      2.270
O         -0.506     -1.709      2.617
O          1.707     -3.300      3.836
H          4.490      0.038      2.438
H          3.489     -1.489      4.157
H          4.012     -3.498      3.078
H          1.761     -2.560      1.876
H          0.693     -0.944      4.275
H          2.545      0.672      3.970
H          2.346      1.980      1.190
H          1.849      2.698      2.757
H          3.953      3.408      2.377
H         -2.171     -0.229      4.006
H         -0.850     -2.987      4.264
H         -3.098     -1.937      2.440
H         -3.343     -4.000      4.720
H         -2.277     -2.235      6.342
H         -4.085     -0.736      7.214
H         -2.525      0.141      7.108
H         -3.284      1.171      5.259
H         -3.091     -4.137      1.783
H         -0.635      0.758      5.247
H          0.933     -3.819      3.474
H         -5.562     -3.763      4.065
H          3.844     -1.106      0.452
 