%nproc=12
%mem=16GB
#P pm6   opt=loose freq int=(grid=99590)   

offspring-11

 0 1
O          1.964      0.956      0.206
C          2.445      2.126      0.881
C          3.127      1.707      2.203
O          3.988      0.630      1.811
C          2.070      1.193      3.204
C          1.086      2.332      3.534
O          1.056      3.347      2.536
C          1.213      3.022      1.138
C         -0.098      2.419      0.616
O         -1.207      3.117      1.212
O         -1.990     -0.511      7.284
C         -1.520     -0.711      5.940
C         -1.568      0.640      5.193
C         -0.734      0.627      3.892
C          0.568     -0.217      3.962
O          0.505     -1.377      4.795
C         -0.077     -1.215      6.111
C          0.007     -2.638      6.704
O         -1.255     -3.111      7.162
O          0.795     -0.797      2.679
O         -0.288      1.994      3.765
O         -2.949      0.766      4.874
O          2.802      0.880      4.391
H          3.178      2.625      0.206
H          3.745      2.518      2.648
H          4.348      0.189      2.621
H          1.565      0.279      2.809
H          1.352      2.916      4.452
H          1.373      4.052      0.730
H         -0.227      2.567     -0.472
H         -0.195      1.340      0.851
H         -0.975      3.338      2.170
H         -2.172     -1.467      5.438
H         -1.246      1.485      5.848
H         -1.367      0.326      3.025
H          1.467      0.387      4.204
H          0.540     -0.488      6.682
H          0.291     -3.374      5.921
H          0.735     -2.677      7.534
H         -1.657     -2.463      7.802
H         -3.186      1.736      4.657
H         -2.925     -0.185      7.251
H          2.369      0.113      4.859
H          0.579     -1.766      2.695
H          2.678      0.262      0.202
 