%nproc=12
%mem=16GB
#P pm6   opt=loose freq int=(grid=99590)   

offspring-15

 0 1
O          0.653      0.351      1.153
C          1.634      1.362      0.891
C          2.850      1.146      1.822
O          3.128     -0.254      1.692
C          2.462      1.469      3.281
C          2.061      2.953      3.385
O          1.663      3.510      2.137
C          0.948      2.719      1.162
C         -0.515      2.585      1.608
O         -0.949      3.831      2.183
O         -2.689      3.534      7.089
C         -1.723      2.564      6.648
C         -1.074      3.072      5.341
C          0.230      2.318      4.996
C          1.088      1.905      6.222
O          0.354      1.583      7.406
C         -0.703      2.491      7.797
C         -1.269      1.835      9.075
O         -2.673      1.616      8.997
O          1.721      0.661      5.929
O          1.018      3.309      4.303
O         -2.069      2.776      4.367
O          3.661      1.280      4.036
H          1.940      1.266     -0.176
H          3.747      1.723      1.504
H          3.791     -0.520      2.376
H          1.665      0.773      3.640
H          2.897      3.633      3.688
H          1.037      3.400      0.278
H         -1.201      2.416      0.758
H         -0.661      1.782      2.359
H         -0.184      4.230      2.709
H         -2.239      1.588      6.482
H         -0.885      4.171      5.375
H          0.014      1.443      4.339
H          1.897      2.630      6.452
H         -0.254      3.487      8.003
H         -0.854      0.812      9.208
H         -1.044      2.447      9.966
H         -3.144      2.465      8.775
H         -1.924      3.326      3.519
H         -3.386      3.631      6.391
H          3.432      0.954      4.952
H          1.285     -0.075      6.432
H          1.100     -0.538      1.191
 