%nproc=12
%mem=16GB
#P pm6   opt=loose freq int=(grid=99590)   

offspring-03

 0 1
O          1.964      0.956      0.206
C          2.445      2.126      0.881
C          3.127      1.707      2.203
O          3.988      0.630      1.811
C          2.070      1.193      3.204
C          1.086      2.332      3.534
O          1.056      3.347      2.536
C          1.213      3.022      1.138
C         -0.098      2.419      0.616
O         -1.207      3.117      1.212
O         -4.368      0.646      5.525
C         -2.966      0.394      5.725
C         -2.202      0.819      4.451
C         -0.681      0.960      4.692
C         -0.293      1.505      6.094
O         -1.166      1.133      7.163
C         -2.589      1.268      6.932
C         -3.203      0.774      8.259
O         -4.156     -0.264      8.063
O          0.929      0.887      6.492
O         -0.288      1.994      3.765
O         -2.446     -0.269      3.567
O          2.802      0.880      4.391
H          3.178      2.625      0.206
H          3.745      2.518      2.648
H          4.348      0.189      2.621
H          1.565      0.279      2.809
H          1.352      2.916      4.452
H          1.373      4.052      0.730
H         -0.227      2.567     -0.472
H         -0.195      1.340      0.851
H         -0.975      3.338      2.170
H         -2.819     -0.694      5.932
H         -2.612      1.764      4.020
H         -0.160      0.000      4.471
H         -0.115      2.601      6.101
H         -2.814      2.340      6.741
H         -2.427      0.299      8.898
H         -3.678      1.607      8.809
H         -4.853      0.023      7.413
H         -2.270      0.001      2.598
H         -4.683      0.107      4.756
H          2.369      0.113      4.859
H          0.758      0.202      7.189
H          2.678      0.262      0.202
 