%nproc=12
%mem=16GB
#P pm6   opt=loose freq int=(grid=99590)   

offspring-03

 1 1
C          3.352      3.029     -0.086
H          3.605      3.924     -0.695
O          3.601      3.221      1.296
H          4.519      3.541      1.461
C          4.153      0.710      0.006
H          4.426      0.793      1.083
O          4.240      2.037     -0.585
C          1.866      2.577     -0.180
H          1.597      2.475     -1.277
N          0.981      3.579      0.433
H          1.296      4.001      1.307
C         -0.289      3.787     -0.114
O         -0.579      3.161     -1.139
C         -1.193      4.742      0.572
H         -2.065      4.192      0.996
H         -1.619      5.468     -0.144
H         -0.745      5.321      1.390
C          1.748      1.204      0.517
H          1.930      1.272      1.621
O          0.381      0.699      0.470
H          0.384     -0.505      0.434
C          2.704      0.214     -0.172
H          2.461      0.064     -1.252
O          2.518     -1.015      0.563
C          5.194     -0.113     -0.770
H          5.606     -0.924     -0.135
H          6.017      0.536     -1.129
O          4.594     -0.816     -1.860
H          4.569     -0.250     -2.665
C          2.341     -2.182     -0.267
H          3.158     -2.268     -1.021
C          0.018     -2.763     -0.811
H          0.312     -3.789     -1.160
O          1.159     -1.892     -1.027
C          2.248     -3.344      0.752
H          3.026     -3.205      1.545
O          2.441     -4.555      0.020
H          3.388     -4.834      0.030
C          0.864     -3.535      1.422
H          0.649     -4.627      1.520
O          0.988     -2.909      2.709
H          0.500     -3.421      3.400
C         -0.282     -2.792      0.694
H         -1.300     -3.201      0.911
O         -0.352     -1.424      1.206
H          0.209     -1.372      2.073
C         -1.070     -2.176     -1.720
H         -1.331     -2.871     -2.542
H         -0.744     -1.202     -2.143
O         -2.263     -2.045     -0.909
C         -3.039     -0.870     -1.209
H         -3.099     -0.685     -2.300
C         -5.310     -0.209     -0.700
H         -5.380      0.206     -1.730
O         -4.310     -1.273     -0.687
C         -2.448      0.321     -0.408
H         -1.939     -0.051      0.518
O         -1.375      0.806     -1.271
H         -1.546      1.778     -1.556
C         -3.454      1.437     -0.073
H         -3.515      2.189     -0.896
O         -2.950      2.181      1.033
H         -3.249      1.757      1.893
C         -4.844      0.862      0.308
H         -5.593      1.681      0.434
O         -4.708      0.331      1.627
H         -4.407     -0.618      1.578
C         -6.582     -0.917     -0.284
H         -6.597     -1.950     -0.672
H         -7.477     -0.411     -0.666
H         -6.687     -0.993      0.809
H         -0.169      0.975     -0.486
 