%nproc=12
%mem=16GB
#P pm6   opt=loose freq int=(grid=99590)   

initial-14

 1 1
C         -6.999      7.218      1.775
H         -6.753      8.234      1.451
O         -8.141      7.170      2.551
H         -8.024      7.741      3.316
C         -4.657      6.602      1.943
H         -4.084      5.939      2.597
O         -5.940      6.681      2.562
C         -7.211      6.323      0.566
H         -8.036      6.689     -0.046
N         -7.523      4.999      1.094
H         -7.282      4.861      2.069
C         -7.846      3.955      0.395
O         -8.144      4.112     -0.848
C         -7.860      2.608      1.015
H         -7.078      2.022      0.520
H         -8.828      2.133      0.839
H         -7.658      2.647      2.085
C         -5.922      6.286     -0.285
H         -6.044      5.520     -1.049
O         -5.744      7.498     -0.954
H         -5.323      8.141     -0.360
C         -4.713      5.891      0.583
H         -3.802      6.127      0.017
O         -4.733      4.496      0.888
C         -3.916      7.926      1.957
H         -2.872      7.738      1.676
H         -3.940      8.314      2.981
O         -4.521      8.855      1.064
H         -4.026      9.678      1.057
C         -3.544      3.925      1.290
H         -2.962      4.629      1.911
C         -1.531      3.016      0.381
H         -0.929      3.693      1.012
O         -2.794      3.598      0.122
C         -3.825      2.655      2.071
H         -4.417      1.985      1.428
O         -4.523      2.996      3.235
H         -4.492      2.228      3.817
C         -2.500      1.978      2.417
H         -1.929      2.688      3.036
O         -2.747      0.841      3.194
H         -2.502      0.039      2.705
C         -1.674      1.712      1.166
H         -0.677      1.371      1.474
O         -2.309      0.686      0.405
C         -0.798      2.925     -0.953
H          0.154      2.401     -0.820
H         -0.572      3.939     -1.290
O         -1.546      2.325     -2.003
H         -1.568      1.352     -1.907
C         -3.559      0.242      0.877
H         -3.703      0.568      1.912
C         -3.619     -1.845     -0.344
H         -2.703     -1.603     -0.897
O         -3.575     -1.162      0.924
C         -4.692      0.781      0.015
H         -5.632      0.528      0.523
O         -4.532      2.180     -0.068
H         -5.191      2.508     -0.691
C         -4.702      0.145     -1.367
H         -3.777      0.414     -1.886
O         -5.761      0.670     -2.128
H         -6.564      0.211     -1.853
C         -4.779     -1.366     -1.214
H         -4.673     -1.830     -2.205
O         -6.053     -1.639     -0.665
H         -6.305     -2.548     -0.838
C         -3.669     -3.320     -0.026
H         -3.685     -3.910     -0.946
H         -4.560     -3.550      0.563
H         -2.798     -3.624      0.560
H         -8.019      3.248     -1.369
 