%nproc=12
%mem=16GB
#P pm6   opt=loose freq int=(grid=99590)   

offspring-14

 0 1
O          1.965      0.955      0.207
C          2.446      2.126      0.881
C          3.128      1.708      2.204
O          3.989      0.632      1.813
C          2.070      1.194      3.205
C          1.086      2.333      3.534
O          1.055      3.347      2.536
C          1.213      3.021      1.138
C         -0.098      2.418      0.616
O         -1.207      3.116      1.212
O         -2.290      3.946      7.471
C         -1.712      2.685      7.091
C         -1.691      2.596      5.549
C         -0.751      1.482      5.033
C          0.534      1.272      5.878
O          0.395      1.513      7.280
C         -0.291      2.723      7.678
C         -0.265      2.646      9.220
O         -1.562      2.762      9.792
O          0.865     -0.115      5.856
O         -0.288      1.994      3.765
O         -3.040      2.263      5.241
O          2.801      0.882      4.392
H          3.179      2.624      0.206
H          3.745      2.520      2.649
H          4.349      0.190      2.623
H          1.566      0.279      2.809
H          1.352      2.917      4.451
H          1.372      4.051      0.729
H         -0.228      2.565     -0.472
H         -0.195      1.339      0.852
H         -0.975      3.337      2.170
H         -2.325      1.860      7.529
H         -1.420      3.573      5.084
H         -1.312      0.527      4.902
H          1.414      1.817      5.475
H          0.281      3.596      7.295
H          0.079      1.644      9.557
H          0.392      3.427      9.643
H         -2.011      3.590      9.468
H         -3.254      2.473      4.265
H         -3.217      3.990      7.125
H          2.368      0.114      4.859
H          0.643     -0.537      6.726
H          2.679      0.262      0.202
 