%nproc=12
%mem=16GB
#P pm6   opt=loose freq int=(grid=99590)   

offspring-05

 0 1
O          1.963      0.956      0.206
C          2.445      2.125      0.881
C          3.127      1.706      2.204
O          3.987      0.630      1.812
C          2.069      1.194      3.205
C          1.085      2.333      3.534
O          1.056      3.347      2.536
C          1.214      3.021      1.138
C         -0.099      2.419      0.617
O         -1.207      3.118      1.213
O         -4.540      0.134      3.892
C         -3.172     -0.297      3.785
C         -2.314      0.897      3.312
C         -0.802      0.665      3.535
C         -0.449     -0.132      4.821
O         -1.402     -1.124      5.210
C         -2.797     -0.737      5.209
C         -3.514     -2.029      5.658
O         -4.528     -2.433      4.744
O          0.703     -0.929      4.553
O         -0.289      1.995      3.765
O         -2.589      0.941      1.916
O          2.800      0.881      4.392
H          3.178      2.624      0.206
H          3.745      2.518      2.649
H          4.347      0.188      2.622
H          1.564      0.278      2.809
H          1.352      2.916      4.451
H          1.373      4.052      0.730
H         -0.228      2.567     -0.471
H         -0.196      1.340      0.853
H         -0.974      3.339      2.171
H         -3.116     -1.141      3.055
H         -2.633      1.851      3.796
H         -0.339      0.205      2.632
H         -0.194      0.521      5.682
H         -2.934      0.091      5.938
H         -2.810     -2.888      5.662
H         -3.957     -1.905      6.663
H         -5.167     -1.688      4.583
H         -2.345      1.852      1.523
H         -4.853      0.433      3.001
H          2.367      0.113      4.860
H          0.447     -1.882      4.451
H          2.677      0.262      0.202
 