%nproc=12
%mem=16GB
#P pm6   opt=loose freq int=(grid=99590)   

initial-06

 1 1
C          5.748    -11.724      3.708
H          4.685    -11.518      3.887
O          6.140    -11.315      2.440
H          5.794    -11.969      1.791
C          7.225    -13.568      3.767
H          7.670    -13.150      2.856
O          5.886    -13.090      3.915
C          6.603    -10.951      4.728
H          6.088    -10.984      5.695
N          6.653     -9.555      4.282
H          6.338     -9.413      3.326
C          7.072     -8.520      4.969
O          7.640     -8.640      6.111
C          6.888     -7.143      4.452
H          6.312     -6.575      5.187
H          6.373     -7.122      3.492
H          7.865     -6.662      4.365
C          7.998    -11.545      4.930
H          8.648    -11.251      4.096
O          8.475    -10.974      6.146
H          9.347    -11.348      6.438
C          8.001    -13.070      4.976
H          7.522    -13.438      5.889
O          9.357    -13.474      4.891
C          7.147    -15.065      3.568
H          6.208    -15.464      3.972
H          7.975    -15.542      4.092
O          7.292    -15.357      2.192
C         10.336    -12.497      5.032
H         10.407    -12.337      6.118
C         10.779    -10.225      4.581
H         10.857    -10.020      5.663
O          9.908    -11.327      4.380
C         11.696    -12.897      4.481
H         11.620    -13.025      3.394
O         12.100    -14.118      5.086
H         13.061    -14.167      4.996
C         12.706    -11.790      4.745
H         12.805    -11.637      5.826
O         13.973    -12.187      4.279
H         13.998    -12.002      3.331
C         12.200    -10.516      4.080
H         12.844     -9.673      4.373
O         12.291    -10.758      2.694
H         11.699    -10.143      2.238
C         10.142     -9.002      3.957
H         10.707     -8.119      4.281
H          9.114     -8.918      4.329
O         10.160     -9.128      2.543
H          9.798     -8.335      2.143
C          6.139    -15.247      1.398
H          5.314    -14.814      1.967
C          6.620    -17.242      0.190
H          7.524    -17.415      0.791
O          5.685    -16.501      0.972
C          6.457    -14.400      0.171
H          5.536    -14.342     -0.422
O          6.887    -13.087      0.515
H          7.358    -12.765     -0.265
C          7.538    -15.081     -0.656
H          8.442    -15.163     -0.047
O          7.866    -14.274     -1.767
H          7.206    -14.460     -2.447
C          7.064    -16.469     -1.056
H          7.899    -17.011     -1.522
O          6.027    -16.253     -1.999
H          5.826    -17.071     -2.457
C          5.960    -18.561     -0.138
H          5.027    -18.397     -0.684
H          5.718    -19.099      0.780
H          6.626    -19.188     -0.739
H          8.002     -9.596      6.273
 