%nproc=12
%mem=16GB
#P pm6   opt=loose freq int=(grid=99590)   

initial-08

 1 1
C         -6.032      2.781     -8.133
H         -6.503      1.929     -8.635
O         -6.211      3.964     -8.823
H         -5.856      3.867     -9.711
C         -4.203      1.414     -7.311
H         -3.138      1.589     -7.129
O         -4.628      2.573     -8.025
C         -6.619      2.952     -6.742
H         -7.697      3.111     -6.799
N         -5.972      4.127     -6.166
H         -5.151      4.456     -6.661
C         -6.252      4.666     -5.018
O         -7.300      4.261     -4.391
C         -5.379      5.723     -4.447
H         -5.984      6.593     -4.178
H         -4.598      6.026     -5.144
H         -4.917      5.329     -3.535
C         -6.346      1.684     -5.902
H         -6.624      1.896     -4.871
O         -7.159      0.632     -6.327
H         -6.766      0.208     -7.108
C         -4.847      1.330     -5.919
H         -4.737      0.309     -5.529
O         -4.095      2.236     -5.111
C         -4.267      0.150     -8.147
H         -3.730     -0.644     -7.612
H         -3.751      0.348     -9.093
O         -5.616     -0.230     -8.394
H         -5.644     -1.043     -8.903
C         -4.320      2.221     -3.752
H         -5.400      2.159     -3.526
C         -3.912      3.551     -1.802
H         -4.973      3.485     -1.509
O         -3.786      3.419     -3.207
C         -3.578      1.024     -3.171
H         -2.547      1.133     -3.531
O         -4.168     -0.150     -3.652
H         -3.603     -0.893     -3.399
C         -3.635      1.091     -1.644
H         -4.685      0.955     -1.358
O         -2.949      0.035     -0.994
C         -3.165      2.432     -1.088
H         -3.411      2.468     -0.019
O         -1.765      2.612     -1.264
H         -1.289      2.016     -0.651
C         -3.426      4.944     -1.438
H         -3.500      5.088     -0.355
H         -4.051      5.693     -1.927
O         -2.086      5.186     -1.868
H         -1.564      4.425     -1.555
C         -3.235     -0.264      0.343
H         -2.401     -0.021      1.003
C         -4.570     -2.137     -0.291
H         -4.367     -1.895     -1.341
O         -3.466     -1.643      0.505
C         -4.460      0.530      0.765
H         -4.636      0.322      1.829
O         -4.174      1.907      0.598
H         -5.009      2.388      0.627
C         -5.679      0.094     -0.029
H         -5.521      0.346     -1.083
O         -6.809      0.813      0.402
H         -7.159      0.355      1.177
C         -5.854     -1.419      0.116
H         -6.666     -1.744     -0.542
O         -6.270     -1.727      1.435
H         -5.491     -1.849      1.986
C         -4.617     -3.633     -0.102
H         -4.796     -3.896      0.943
H         -3.676     -4.086     -0.420
H         -5.425     -4.058     -0.702
H         -7.225      4.437     -3.387
 