%nproc=12
%mem=16GB
#P pm6   opt=loose freq int=(grid=99590)   

initial-11

 1 1
C         -0.093      7.717      3.685
H          0.929      8.091      3.802
O         -1.044      8.651      4.048
H         -0.892      8.915      4.960
C          0.563      5.458      4.284
H          0.075      4.633      4.811
O         -0.298      6.574      4.509
C         -0.342      7.327      2.237
H         -0.221      8.188      1.579
N         -1.715      6.837      2.183
H         -2.119      6.598      3.081
C         -2.352      6.471      1.113
O         -1.846      6.757     -0.036
C         -3.631      5.728      1.216
H         -3.456      4.733      0.793
H         -4.399      6.237      0.629
H         -3.965      5.627      2.249
C          0.654      6.222      1.820
H          0.354      5.849      0.841
O          1.938      6.751      1.673
H          2.372      6.802      2.541
C          0.595      5.040      2.807
H          1.479      4.413      2.631
O         -0.586      4.264      2.608
C          1.918      5.619      4.947
H          2.429      4.648      4.923
H          1.750      5.903      5.992
O          2.691      6.614      4.286
H          3.557      6.686      4.694
C         -0.426      2.899      2.491
H          0.420      2.550      3.110
C          0.045      1.228      0.851
H          0.879      0.846      1.466
O         -0.162      2.601      1.123
C         -1.702      2.197      2.915
H         -2.524      2.578      2.289
O         -1.925      2.462      4.271
H         -2.594      1.838      4.573
C         -1.547      0.695      2.680
H         -0.702      0.358      3.300
O         -2.695      0.033      3.129
H         -3.170     -0.364      2.380
C         -1.183      0.400      1.231
H         -0.932     -0.666      1.147
O         -2.309      0.686      0.405
C          0.509      1.123     -0.597
H          0.601      0.070     -0.884
H          1.501      1.572     -0.673
O         -0.304      1.818     -1.535
H         -1.125      1.321     -1.724
C         -3.559      0.242      0.877
H         -3.703      0.568      1.912
C         -3.619     -1.845     -0.344
H         -2.703     -1.603     -0.897
O         -3.575     -1.162      0.924
C         -4.692      0.781      0.015
H         -5.632      0.528      0.523
O         -4.532      2.180     -0.068
H         -5.191      2.508     -0.691
C         -4.702      0.145     -1.367
H         -3.777      0.414     -1.886
O         -5.761      0.670     -2.128
H         -6.564      0.211     -1.853
C         -4.779     -1.366     -1.214
H         -4.673     -1.830     -2.205
O         -6.053     -1.639     -0.665
H         -6.305     -2.548     -0.838
C         -3.669     -3.320     -0.026
H         -3.685     -3.910     -0.946
H         -4.560     -3.550      0.563
H         -2.798     -3.624      0.560
H         -2.199      6.136     -0.759
 