%nproc=12
%mem=16GB
#P pm6   opt=loose freq int=(grid=99590)   

initial-09

 0 1
O          2.661      2.109     -0.056
C          2.764      2.782      1.222
C          2.872      1.758      2.371
O          4.068      0.978      2.209
C          1.619      0.848      2.368
C          0.271      1.661      2.255
O          0.310      2.703      1.263
C          1.452      3.570      1.443
C          1.301      4.725      0.434
O          2.491      5.522      0.544
O         -2.811      4.339      5.711
C         -2.939      3.096      4.978
C         -1.840      2.741      3.939
C         -2.135      1.339      3.352
C         -2.306      0.276      4.469
O         -3.283      0.682      5.433
C         -3.026      1.951      6.044
C         -4.228      2.108      6.987
O         -5.453      2.048      6.215
O         -2.854     -0.882      3.869
O         -1.048      1.038      2.472
O         -1.866      3.692      2.865
O          1.668      0.084      3.580
H          3.630      3.467      1.225
H          2.898      2.316      3.329
H          4.006      0.293      2.935
H          1.708      0.189      1.487
H          0.056      2.101      3.254
H          1.459      3.985      2.471
H          1.184      4.296     -0.580
H          0.384      5.290      0.681
H          2.266      6.390      0.110
H         -3.896      3.115      4.427
H         -0.852      2.718      4.444
H         -3.099      1.394      2.805
H         -1.325      0.080      4.960
H         -2.090      1.950      6.634
H         -4.255      1.260      7.689
H         -4.147      3.045      7.560
H         -5.569      2.957      5.820
H         -1.323      4.301      3.250
H         -3.785      4.951      5.649
H          1.086     -0.708      3.393
H         -2.783     -1.655      4.434
H          3.470      1.657     -0.308
 