%nproc=12
%mem=16GB
#P PBE1PBE STO-3G opt freq int=(grid=99590) EmpiricalDispersion=GD3 

initial-00

 0 1
O          2.529     -0.560      0.182
C          3.089     -1.855     -0.144
C          2.561     -2.349     -1.507
O          2.973     -1.440     -2.541
C          1.017     -2.455     -1.453
C          0.499     -3.209     -0.167
O          1.157     -2.795      1.045
C          2.596     -2.861      0.921
C          3.179     -2.552      2.313
O          4.606     -2.512      2.159
O         -0.925     -3.122     -0.008
C         -1.624     -2.739      1.202
C         -3.098     -2.266      1.079
C         -3.663     -2.001      2.496
C         -3.476     -3.229      3.425
O         -2.112     -3.661      3.452
C         -1.559     -3.971      2.168
C         -0.120     -4.374      2.522
O          0.529     -3.276      3.208
O         -3.743     -2.801      4.747
O         -5.039     -1.653      2.318
O         -3.152     -1.039      0.337
O          0.614     -3.131     -2.652
H          4.192     -1.805     -0.146
H          2.976     -3.361     -1.691
H          2.517     -1.787     -3.360
H          0.629     -1.422     -1.438
H          0.656     -4.299     -0.327
H          2.907     -3.879      0.615
H          2.775     -1.581      2.660
H          2.847     -3.338      3.016
H          4.972     -2.595      3.078
H         -1.068     -1.911      1.677
H         -3.700     -3.064      0.597
H         -3.086     -1.164      2.942
H         -4.147     -4.057      3.100
H         -2.074     -4.823      1.685
H         -0.140     -5.220      3.226
H          0.428     -4.675      1.615
H          0.828     -2.645      2.497
H         -5.355     -1.367      3.221
H         -4.107     -0.758      0.428
H         -0.349     -2.884     -2.777
H         -3.870     -3.538      5.350
H          2.848      0.137     -0.390
 